; benchmark generated from python API
(set-info :status unknown)
(declare-fun x_month () Int)
(declare-fun x_day () Int)
(declare-fun x_year () Int)
(declare-fun y_month () Int)
(declare-fun y_day () Int)
(declare-fun y_year () Int)
(assert
 (>= x_month 1))
(assert
 (<= x_month 12))
(assert
 (>= x_day 1))
(assert
 (<= x_day 31))
(assert
 (let (($x126 (<= x_day 28)))
 (let (($x653 (<= x_day 29)))
 (let (($x650 (= (mod x_year 400) 0)))
 (let (($x138 (= (mod x_year 4) 0)))
 (let (($x810 (ite (or (and $x138 (and (distinct (mod x_year 100) 0) true)) $x650) $x653 $x126)))
 (let (($x595 (= x_month 2)))
 (ite $x595 $x810 true))))))))
(assert
 (let (($x164 (<= x_day 30)))
 (let (($x203 (or (= x_month 4) (= x_month 6) (= x_month 9) (= x_month 11))))
 (ite $x203 $x164 true))))
(assert
 (>= y_month 1))
(assert
 (<= y_month 12))
(assert
 (>= y_day 1))
(assert
 (<= y_day 31))
(assert
 (let (($x793 (<= y_day 28)))
 (let (($x775 (<= y_day 29)))
 (let (($x115 (= (mod y_year 400) 0)))
 (let (($x215 (= (mod y_year 4) 0)))
 (let (($x620 (ite (or (and $x215 (and (distinct (mod y_year 100) 0) true)) $x115) $x775 $x793)))
 (let (($x211 (= y_month 2)))
 (ite $x211 $x620 true))))))))
(assert
 (let (($x388 (<= y_day 30)))
 (let (($x67 (or (= y_month 4) (= y_month 6) (= y_month 9) (= y_month 11))))
 (ite $x67 $x388 true))))
(assert
 (let (($x330 (= x_day 29)))
 (let (($x595 (= x_month 2)))
 (let (($x690 (= x_year 2020)))
 (and $x690 $x595 $x330)))))
(assert
 (let ((?x751 (+ (mod (- (+ x_month (+ (* 1 12) 0)) 1) 12) 1)))
 (let ((?x730 (ite (or (= ?x751 4) (= ?x751 6) (= ?x751 9) (= ?x751 11)) 30 31)))
 (let ((?x108 (+ 0 (div (- (+ x_month (+ (* 1 12) 0)) 1) 12))))
 (let ((?x155 (+ x_year ?x108)))
 (let (($x204 (or (and (= (mod ?x155 4) 0) (and (distinct (mod ?x155 100) 0) true)) (= (mod ?x155 400) 0))))
 (let ((?x170 (ite (= ?x751 2) (ite $x204 29 28) ?x730)))
 (let ((?x152 (ite (< x_day 1) 1 (ite (> x_day ?x170) ?x170 x_day))))
 (let ((?x136 (ite (< ?x152 1) 1 (ite (> ?x152 ?x170) ?x170 ?x152))))
 (let ((?x451 (ite (= 2 ?x751) (ite $x204 31 31) (ite (= 1 ?x751) (ite $x204 0 0) 0))))
 (let ((?x491 (ite (= 4 ?x751) (ite $x204 91 90) (ite (= 3 ?x751) (ite $x204 60 59) ?x451))))
 (let ((?x452 (ite (= 6 ?x751) (ite $x204 152 151) (ite (= 5 ?x751) (ite $x204 121 120) ?x491))))
 (let ((?x473 (ite (= 8 ?x751) (ite $x204 213 212) (ite (= 7 ?x751) (ite $x204 182 181) ?x452))))
 (let ((?x224 (ite (= 10 ?x751) (ite $x204 274 273) (ite (= 9 ?x751) (ite $x204 244 243) ?x473))))
 (let ((?x423 (ite (= 12 ?x751) (ite $x204 335 334) (ite (= 11 ?x751) (ite $x204 305 304) ?x224))))
 (let ((?x309 (- (+ (* 365 (- ?x155 1)) (div (- ?x155 1) 4)) (div (- ?x155 1) 100))))
 (let ((?x493 (- (+ (+ (+ ?x309 (div (- ?x155 1) 400)) ?x423) (- ?x136 1)) 730179)))
 (let ((?x340 (+ (+ ?x493 0) 730179)))
 (let ((?x335 (mod ?x340 146097)))
 (let ((?x363 (div ?x335 36524)))
 (let ((?x364 (ite (<= 4 ?x363) 3 ?x363)))
 (let ((?x232 (- ?x335 (* ?x364 36524))))
 (let ((?x481 (mod ?x232 1461)))
 (let ((?x247 (div ?x481 365)))
 (let ((?x412 (ite (<= 4 ?x247) 3 ?x247)))
 (let ((?x674 (+ (+ (* (div ?x340 146097) 400) (* ?x364 100)) (* (div ?x232 1461) 4))))
 (let ((?x285 (+ (+ ?x674 ?x412) 1)))
 (let (($x435 (or (and (= (mod ?x285 4) 0) (and (distinct (mod ?x285 100) 0) true)) (= (mod ?x285 400) 0))))
 (let ((?x722 (- ?x481 (* ?x412 365))))
 (let ((?x506 (ite $x435 31 31)))
 (let (($x705 (>= ?x722 ?x506)))
 (let ((?x11 (ite $x705 (+ (- ?x722 ?x506) 1) (+ (- ?x722 (ite $x435 0 0)) 1))))
 (let ((?x416 (ite $x435 60 59)))
 (let (($x639 (>= ?x722 ?x416)))
 (let ((?x32 (ite $x435 91 90)))
 (let (($x490 (>= ?x722 ?x32)))
 (let ((?x249 (ite $x490 (+ (- ?x722 ?x32) 1) (ite $x639 (+ (- ?x722 ?x416) 1) ?x11))))
 (let ((?x514 (ite $x435 121 120)))
 (let (($x52 (>= ?x722 ?x514)))
 (let ((?x422 (ite $x435 152 151)))
 (let (($x234 (>= ?x722 ?x422)))
 (let ((?x140 (ite $x234 (+ (- ?x722 ?x422) 1) (ite $x52 (+ (- ?x722 ?x514) 1) ?x249))))
 (let ((?x24 (ite $x435 182 181)))
 (let (($x33 (>= ?x722 ?x24)))
 (let ((?x685 (ite $x435 213 212)))
 (let (($x519 (>= ?x722 ?x685)))
 (let ((?x220 (ite $x519 (+ (- ?x722 ?x685) 1) (ite $x33 (+ (- ?x722 ?x24) 1) ?x140))))
 (let ((?x682 (ite $x435 244 243)))
 (let (($x693 (>= ?x722 ?x682)))
 (let ((?x344 (ite $x435 274 273)))
 (let (($x795 (>= ?x722 ?x344)))
 (let ((?x499 (ite $x795 (+ (- ?x722 ?x344) 1) (ite $x693 (+ (- ?x722 ?x682) 1) ?x220))))
 (let ((?x683 (ite $x435 305 304)))
 (let (($x657 (>= ?x722 ?x683)))
 (let ((?x49 (ite $x435 335 334)))
 (let (($x197 (>= ?x722 ?x49)))
 (let ((?x61 (ite $x197 (+ (- ?x722 ?x49) 1) (ite $x657 (+ (- ?x722 ?x683) 1) ?x499))))
 (let (($x55 (= 0 0)))
 (let ((?x339 (ite $x52 5 (ite $x490 4 (ite $x639 3 (ite $x705 2 1))))))
 (let ((?x695 (ite $x693 9 (ite $x519 8 (ite $x33 7 (ite $x234 6 ?x339))))))
 (let (($x731 (= y_month (ite $x55 ?x751 (ite $x197 12 (ite $x657 11 (ite $x795 10 ?x695)))))))
 (and (= y_year (ite $x55 ?x155 ?x285)) $x731 (= y_day (ite $x55 ?x136 ?x61))))))))))))))))))))))))))))))))))))))))))))))))))))))))))))))))
(assert
 (not (and (= y_year 2021) (= y_month 2) (= y_day 28))))
(check-sat)
